p cnf 12 50 
-5 -3 11 0
3 -6 -5 0
4 -3 2 0
6 12 1 0
-8 -11 -3 0
8 -3 9 0
11 -6 -7 0
-11 6 -4 0
10 -9 8 0
-2 10 11 0
-3 -10 4 0
-4 5 7 0
1 -10 -11 0
-10 1 -11 0
-8 -4 -1 0
-5 10 1 0
9 -1 -4 0
11 2 -3 0
1 9 -10 0
4 11 -12 0
-7 5 11 0
10 -3 5 0
-8 -11 6 0
-4 -1 -9 0
-12 2 6 0
10 -5 -11 0
4 10 12 0
-3 12 -4 0
12 -9 -10 0
1 -2 -4 0
-12 -9 1 0
11 -9 -3 0
-1 -12 7 0
-9 10 -3 0
4 11 -7 0
11 -5 -8 0
2 -7 -1 0
5 -6 -1 0
2 -1 -11 0
2 8 -6 0
-4 -11 5 0
10 -12 -9 0
7 3 -6 0
9 4 2 0
12 6 -7 0
2 -5 4 0
-1 -12 4 0
7 8 -6 0
10 2 -3 0
2 1 7 0
